! ExtOpt GOAT

%maxcore 4000

%pal
  nprocs 16
end

%method
  ProgExt "/mmhome/boittier/home/mmml/examples/orca/mmml-orca-client"
  Ext_Params "-b 127.0.0.1:8888"
end

%goat
  NWORKERS 8
  MAXITER 32
  KEEPWORKERDATA TRUE
end

%geom
  EnforceStrictConvergence false
end

* xyzfile 0 1 waterdimer.xyz
