72
Lattice="28.0 0.0 0.0 0.0 28.0 0.0 0.0 0.0 28.0" Properties=species:S:1:pos:R:3:occupancy:R:1:bfactor:R:1:residuenames:S:1:atomtypes:S:1:residuenumbers:I:1 pbc="T T T"
Ca      14.00000000      14.00000000      14.00000000       1.00000000       0.00000000 TRIA CAY        1
H       14.00000000      14.00000000      14.00000000       1.00000000       0.00000000 TRIA HY1        1
H       14.00000000      14.00000000      14.00000000       1.00000000       0.00000000 TRIA HY2        1
H       14.00000000      14.00000000      14.00000000       1.00000000       0.00000000 TRIA HY3        1
C       14.00000000      14.00000000      14.00000000       1.00000000       0.00000000 TRIA CY        1
O       14.00000000      14.00000000      14.00000000       1.00000000       0.00000000 TRIA OY        1
N       14.00000000      14.00000000      14.00000000       1.00000000       0.00000000 TRIA N1        1
H       14.00000000      14.00000000      14.00000000       1.00000000       0.00000000 TRIA HN1        1
Ca      14.00000000      14.00000000      14.00000000       1.00000000       0.00000000 TRIA CA1        1
H       14.00000000      14.00000000      14.00000000       1.00000000       0.00000000 TRIA HA1        1
C       14.00000000      14.00000000      14.00000000       1.00000000       0.00000000 TRIA CB1        1
H       14.00000000      14.00000000      14.00000000       1.00000000       0.00000000 TRIA HB11        1
H       14.00000000      14.00000000      14.00000000       1.00000000       0.00000000 TRIA HB21        1
H       14.00000000      14.00000000      14.00000000       1.00000000       0.00000000 TRIA HB31        1
C       14.00000000      14.00000000      14.00000000       1.00000000       0.00000000 TRIA C1        1
O       14.00000000      14.00000000      14.00000000       1.00000000       0.00000000 TRIA O1        1
N       14.00000000      14.00000000      14.00000000       1.00000000       0.00000000 TRIA N2        1
H       14.00000000      14.00000000      14.00000000       1.00000000       0.00000000 TRIA HN2        1
Ca      14.00000000      14.00000000      14.00000000       1.00000000       0.00000000 TRIA CA2        1
H       14.00000000      14.00000000      14.00000000       1.00000000       0.00000000 TRIA HA2        1
C       14.00000000      14.00000000      14.00000000       1.00000000       0.00000000 TRIA CB2        1
H       14.00000000      14.00000000      14.00000000       1.00000000       0.00000000 TRIA HB12        1
H       14.00000000      14.00000000      14.00000000       1.00000000       0.00000000 TRIA HB22        1
H       14.00000000      14.00000000      14.00000000       1.00000000       0.00000000 TRIA HB32        1
C       14.00000000      14.00000000      14.00000000       1.00000000       0.00000000 TRIA C2        1
O       14.00000000      14.00000000      14.00000000       1.00000000       0.00000000 TRIA O2        1
N       14.00000000      14.00000000      14.00000000       1.00000000       0.00000000 TRIA N3        1
H       14.00000000      14.00000000      14.00000000       1.00000000       0.00000000 TRIA HN3        1
Ca      14.00000000      14.00000000      14.00000000       1.00000000       0.00000000 TRIA CA3        1
H       14.00000000      14.00000000      14.00000000       1.00000000       0.00000000 TRIA HA3        1
C       14.00000000      14.00000000      14.00000000       1.00000000       0.00000000 TRIA CB3        1
H       14.00000000      14.00000000      14.00000000       1.00000000       0.00000000 TRIA HB13        1
H       14.00000000      14.00000000      14.00000000       1.00000000       0.00000000 TRIA HB23        1
H       14.00000000      14.00000000      14.00000000       1.00000000       0.00000000 TRIA HB33        1
C       14.00000000      14.00000000      14.00000000       1.00000000       0.00000000 TRIA C3        1
O       14.00000000      14.00000000      14.00000000       1.00000000       0.00000000 TRIA O3        1
N       14.00000000      14.00000000      14.00000000       1.00000000       0.00000000 TRIA NT        1
H       14.00000000      14.00000000      14.00000000       1.00000000       0.00000000 TRIA HNT        1
Ca      14.00000000      14.00000000      14.00000000       1.00000000       0.00000000 TRIA CAT        1
H       14.00000000      14.00000000      14.00000000       1.00000000       0.00000000 TRIA HT1        1
H       14.00000000      14.00000000      14.00000000       1.00000000       0.00000000 TRIA HT2        1
H       14.00000000      14.00000000      14.00000000       1.00000000       0.00000000 TRIA HT3        1
O        2.87300000       3.36200000       2.84000000       1.00000000       0.00000000 TIP3 OH2        1
H        2.37900000       2.60500000       3.15300000       1.00000000       0.00000000 TIP3 H1        1
H        3.75400000       3.23600000       3.19100000       1.00000000       0.00000000 TIP3 H2        1
O        2.89400000       3.33600000      17.01900000       1.00000000       0.00000000 TIP3 OH2        2
H        2.40000000       2.57900000      17.33200000       1.00000000       0.00000000 TIP3 H1        2
H        3.77500000       3.21000000      17.37000000       1.00000000       0.00000000 TIP3 H2        2
O        2.91600000       6.13300000       8.44100000       1.00000000       0.00000000 TIP3 OH2        3
H        2.42200000       5.37600000       8.75400000       1.00000000       0.00000000 TIP3 H1        3
H        3.79700000       6.00700000       8.79200000       1.00000000       0.00000000 TIP3 H2        3
O        2.89000000       6.18000000      11.31400000       1.00000000       0.00000000 TIP3 OH2        4
H        2.39600000       5.42300000      11.62700000       1.00000000       0.00000000 TIP3 H1        4
H        3.77100000       6.05400000      11.66500000       1.00000000       0.00000000 TIP3 H2        4
O        2.89800000       6.19600000      14.16800000       1.00000000       0.00000000 TIP3 OH2        5
H        2.40400000       5.43900000      14.48100000       1.00000000       0.00000000 TIP3 H1        5
H        3.77900000       6.07000000      14.51900000       1.00000000       0.00000000 TIP3 H2        5
O        2.92600000       6.08000000      19.84600000       1.00000000       0.00000000 TIP3 OH2        6
H        2.43200000       5.32300000      20.15900000       1.00000000       0.00000000 TIP3 H1        6
H        3.80700000       5.95400000      20.19700000       1.00000000       0.00000000 TIP3 H2        6
O        2.89700000       8.95700000       2.84800000       1.00000000       0.00000000 TIP3 OH2        7
H        2.40300000       8.20000000       3.16100000       1.00000000       0.00000000 TIP3 H1        7
H        3.77800000       8.83100000       3.19900000       1.00000000       0.00000000 TIP3 H2        7
O        2.91200000       9.02600000       5.64900000       1.00000000       0.00000000 TIP3 OH2        8
H        2.41800000       8.26900000       5.96200000       1.00000000       0.00000000 TIP3 H1        8
H        3.79300000       8.90000000       6.00000000       1.00000000       0.00000000 TIP3 H2        8
O        2.89400000      11.84000000       8.42800000       1.00000000       0.00000000 TIP3 OH2        9
H        2.40000000      11.08300000       8.74100000       1.00000000       0.00000000 TIP3 H1        9
H        3.77500000      11.71400000       8.77900000       1.00000000       0.00000000 TIP3 H2        9
O        2.93400000      11.78100000      11.35700000       1.00000000       0.00000000 TIP3 OH2       10
H        2.44000000      11.02400000      11.67000000       1.00000000       0.00000000 TIP3 H1       10
H        3.81500000      11.65500000      11.70800000       1.00000000       0.00000000 TIP3 H2       10
