72
Lattice="28.0 0.0 0.0 0.0 28.0 0.0 0.0 0.0 28.0" Properties=species:S:1:pos:R:3 comment="CGENFF TRIA + 10× TIP3 (build_trialanine_water_box_in_charmm, seed=11)" pbc="T T T"
C       14.72703576      15.75205172      16.17286510
C       15.09075927      15.56969737      17.20689106
C       14.35592636      14.79864869      15.75001545
C       13.89259657      16.48401244      16.21383971
C       15.83248358      16.30097173      15.34830052
C       16.89368977      16.60888283      15.86692385
C       15.68940650      16.36915654      14.01659272
C       16.45769151      16.74970279      13.51542048
C       14.61513033      15.85703849      13.19044635
C       14.51795512      14.77720728      13.41129100
C       15.05258064      16.00366698      11.71701505
C       17.94925675      14.38800482      16.81044543
C       17.56247371      14.06039037      16.51192185
C       14.33644442      15.51885666      11.02353978
C       13.26623812      16.56420783      13.39533713
C       13.21812755      17.74885448      13.71366781
C       12.09477071      15.88964855      13.39099608
C       11.31366393      16.47056511      13.59226174
C       11.78939451      14.49153207      13.12866492
C       10.68097773      14.41634312      13.19354372
C       12.17891158      14.04612650      11.70095135
C       11.42359801      11.72241438      17.15251388
C       14.21272420      19.42572911      12.03664571
C       11.75701242      14.75552117      10.95666471
C       12.30311915      13.50174779      14.16111985
C       11.93171128      13.54287412      15.33111423
C       13.12339763      12.54130105      13.70406203
C       13.34140940      12.52931748      12.73301140
C       13.68752123      11.47698126      14.50633403
C       12.90342696      11.10101343      15.20253152
C       14.89712754      11.94203348      15.35155236
C        9.21518738      11.94283363      13.97053801
C       11.51090439      15.65247193      16.80733526
C       14.54864877      12.62571049      16.15422295
C       14.05339482      10.28679058      13.62651636
C       13.37541907       9.26412069      13.66769572
C       14.95571891      10.39774199      12.62434290
C       15.04047779       9.57650726      12.06727824
C       15.86066394      11.49245069      12.33309612
C       15.31137706      12.43945216      12.13639238
C       16.56667191      11.65967968      13.17741049
C       16.46497371      11.25774126      11.42869078
C        2.87270964       3.36232071       2.83990272
C        2.37870964       2.60532071       3.15290272
C        3.75370964       3.23632071       3.19090272
C        2.89415551       3.33555901      17.01854017
C        2.40015551       2.57855901      17.33154017
C        3.77515551       3.20955901      17.36954017
C        2.91586246       6.13267673       8.44148687
C        2.42186246       5.37567673       8.75448687
C        3.79686246       6.00667673       8.79248687
C        2.89024969       6.18019512      11.31366614
C        2.39624969       5.42319512      11.62666614
C        3.77124969       6.05419512      11.66466614
C        2.89823339       6.19647711      14.16831884
C        2.40423339       5.43947711      14.48131884
C        3.77923339       6.07047711      14.51931884
C        2.92594064       6.08010429      19.84558602
C        2.43194064       5.32310429      20.15858602
C        3.80694064       5.95410429      20.19658602
C        2.89739021       8.95739383       2.84794902
C        2.40339021       8.20039383       3.16094902
C        3.77839021       8.83139383       3.19894902
C        2.91209622       9.02570216       5.64875202
C        2.41809622       8.26870216       5.96175202
C        3.79309622       8.89970216       5.99975202
C        2.89425343      11.83964029       8.42833342
C        2.40025343      11.08264029       8.74133342
C        3.77525343      11.71364029       8.77933342
C        2.93385943      11.78124643      11.35701394
C        2.43985943      11.02424643      11.67001394
C        3.81485943      11.65524643      11.70801394
